4 14 100 1 2
0 200
 1 40.00 50.00 0.00 0.00 0.00 0 0 0 240
 2 25.00 85.00 10.00 20.00 40.00 1 1 1 145 175
 3 22.00 75.00 10.00 30.00 19.00 1 1 1 50 80
 4 22.00 85.00 10.00 10.00 9.00 1 1 1 109 139
 5 20.00 80.00 10.00 40.00 10.00 1 1 1 141 171
 6 20.00 85.00 10.00 20.00 20.00 1 1 1 41 71
 7 18.00 75.00 10.00 20.00 23.00 1 1 1 95 125
 8 15.00 75.00 10.00 20.00 9.00 1 1 1 79 109
 9 15.00 80.00 10.00 10.00 21.00 1 1 1 91 121
 10 10.00 35.00 10.00 20.00 6.00 1 1 1 91 121
 11 10.00 40.00 10.00 30.00 10.00 1 1 1 119 149
 12 8.00 40.00 10.00 40.00 13.00 1 1 1 59 89
 13 8.00 45.00 10.00 20.00 6.00 1 1 1 64 94
 14 5.00 35.00 10.00 10.00 16.00 1 1 1 142 172
 15 5.00 45.00 10.00 10.00 30.00 1 1 1 35 65
 16 2.00 40.00 10.00 20.00 20.00 1 1 1 58 88
 17 0.00 40.00 10.00 20.00 10.00 1 1 1 72 102
 18 0.00 45.00 10.00 20.00 14.00 1 1 1 149 179
 19 44.00 5.00 10.00 20.00 17.00 1 1 1 87 117
 20 42.00 10.00 10.00 40.00 10.00 1 1 1 72 102
 21 42.00 15.00 10.00 10.00 10.00 1 1 1 122 152
 22 40.00 5.00 10.00 10.00 20.00 1 1 1 67 97
 23 40.00 15.00 10.00 40.00 19.00 1 1 1 92 122
 24 38.00 5.00 10.00 30.00 30.00 1 1 1 65 95
 25 38.00 15.00 10.00 10.00 20.00 1 1 1 148 178
 26 35.00 5.00 10.00 20.00 40.00 1 1 1 154 184
 27 95.00 30.00 10.00 30.00 27.00 1 1 1 115 145
 28 95.00 35.00 10.00 20.00 5.00 1 1 1 62 92
 29 92.00 30.00 10.00 10.00 20.00 1 1 1 62 92
 30 90.00 35.00 10.00 10.00 40.00 1 1 1 67 97
 31 88.00 30.00 10.00 10.00 20.00 1 1 1 74 104
 32 88.00 35.00 10.00 20.00 10.00 1 1 1 61 91
 33 87.00 30.00 10.00 10.00 10.00 1 1 1 131 161
 34 85.00 25.00 10.00 10.00 7.00 1 1 1 51 81
 35 85.00 35.00 10.00 30.00 16.00 1 1 1 111 141
 36 67.00 85.00 10.00 20.00 14.00 1 1 1 139 169
 37 65.00 85.00 10.00 40.00 26.00 1 1 1 43 73
 38 65.00 82.00 10.00 10.00 28.00 1 1 1 124 154
 39 62.00 80.00 10.00 30.00 5.00 1 1 1 75 105
 40 60.00 80.00 10.00 10.00 23.00 1 1 1 37 67
 41 60.00 85.00 10.00 30.00 20.00 1 1 1 85 115
 42 58.00 75.00 10.00 20.00 40.00 1 1 1 92 122
 43 55.00 80.00 10.00 10.00 10.00 1 1 1 33 63
 44 55.00 85.00 10.00 20.00 3.00 1 1 1 128 158
 45 55.00 82.00 10.00 10.00 35.00 1 1 1 64 94
 46 20.00 82.00 10.00 10.00 2.00 1 1 1 37 67
 47 18.00 80.00 10.00 10.00 19.00 1 1 1 113 143
 48 2.00 45.00 10.00 10.00 16.00 1 1 1 45 75
 49 42.00 5.00 10.00 10.00 10.00 1 1 1 151 181
 50 42.00 12.00 10.00 10.00 10.00 1 1 1 104 134
 51 72.00 35.00 10.00 30.00 13.00 1 1 1 116 146
 52 55.00 20.00 10.00 19.00 20.00 1 1 1 83 113
 53 25.00 30.00 10.00 3.00 25.00 1 1 1 52 82
 54 20.00 50.00 10.00 5.00 3.00 1 1 1 91 121
 55 55.00 60.00 10.00 16.00 30.00 1 1 1 139 169
 56 30.00 60.00 10.00 16.00 10.00 1 1 1 140 170
 57 50.00 35.00 10.00 19.00 20.00 1 1 1 130 160
 58 30.00 25.00 10.00 23.00 10.00 1 1 1 96 126
 59 15.00 10.00 10.00 20.00 10.00 1 1 1 152 182
 60 10.00 20.00 10.00 19.00 20.00 1 1 1 42 72
 61 15.00 60.00 10.00 17.00 20.00 1 1 1 155 185
 62 45.00 65.00 10.00 9.00 20.00 1 1 1 66 96
 63 65.00 35.00 10.00 3.00 30.00 1 1 1 52 82
 64 65.00 20.00 10.00 6.00 10.00 1 1 1 39 69
 65 45.00 30.00 10.00 17.00 31.00 1 1 1 53 83
 66 35.00 40.00 10.00 16.00 23.00 1 1 1 11 41
 67 41.00 37.00 10.00 16.00 20.00 1 1 1 133 163
 68 64.00 42.00 10.00 9.00 8.00 1 1 1 70 100
 69 40.00 60.00 10.00 21.00 30.00 1 1 1 144 174
 70 31.00 52.00 10.00 27.00 9.00 1 1 1 41 71
 71 35.00 69.00 10.00 23.00 10.00 1 1 1 180 210
 72 65.00 55.00 10.00 14.00 30.00 1 1 1 65 95
 73 63.00 65.00 10.00 8.00 19.00 1 1 1 30 60
 74 2.00 60.00 10.00 5.00 30.00 1 1 1 77 107
 75 20.00 20.00 10.00 8.00 10.00 1 1 1 141 171
 76 5.00 5.00 10.00 16.00 13.00 1 1 1 74 104
 77 60.00 12.00 10.00 31.00 10.00 1 1 1 75 105
 78 23.00 3.00 10.00 7.00 10.00 1 1 1 150 180
 79 8.00 56.00 10.00 27.00 27.00 1 1 1 90 120
 80 6.00 68.00 10.00 30.00 20.00 1 1 1 89 119
 81 47.00 47.00 10.00 13.00 16.00 1 1 1 192 222
 82 49.00 58.00 10.00 10.00 20.00 1 1 1 86 116
 83 27.00 43.00 10.00 9.00 10.00 1 1 1 42 72
 84 37.00 31.00 10.00 14.00 10.00 1 1 1 35 65
 85 57.00 29.00 10.00 18.00 30.00 1 1 1 96 126
 86 63.00 23.00 10.00 2.00 10.00 1 1 1 87 117
 87 21.00 24.00 10.00 28.00 14.00 1 1 1 87 117
 88 12.00 24.00 10.00 13.00 9.00 1 1 1 90 120
 89 24.00 58.00 10.00 19.00 15.00 1 1 1 67 97
 90 67.00 5.00 10.00 25.00 10.00 1 1 1 144 174
 91 37.00 47.00 10.00 6.00 18.00 1 1 1 86 116
 92 49.00 42.00 10.00 13.00 40.00 1 1 1 167 197
 93 53.00 43.00 10.00 14.00 6.00 1 1 1 14 44
 94 61.00 52.00 10.00 3.00 17.00 1 1 1 178 208
 95 57.00 48.00 10.00 23.00 20.00 1 1 1 95 125
 96 56.00 37.00 10.00 6.00 30.00 1 1 1 34 64
 97 55.00 54.00 10.00 26.00 3.00 1 1 1 132 162
 98 4.00 18.00 10.00 35.00 3.00 1 1 1 120 150
 99 26.00 52.00 10.00 9.00 16.00 1 1 1 46 76
 100 26.00 35.00 10.00 15.00 20.00 1 1 1 77 107
 101 31.00 67.00 10.00 3.00 8.00 1 1 1 180 210
